1654092000
1654099200
1654178400
1654185600
1654610400
1654617600
1654696800
1654704000
1654783200
1654790400
1655128800
1655136000
1655733600
1655740800
1655215200
1655222400
1655820000
1655827200
1655906400
1655913600
1655992800
1656000000
1656079200
1656338400
1656342000
1656424800
1656432000
1656511200
1656518400
1656597600
1656604800
1656086400
